NAME : amz0246.80961_77961.tour
COMMENT : Cost = 80961_77961
COMMENT : Found by LKH-AMZ [Keld Helsgaun] Sun May 11 12:21:31 2025
COMMENT : TW viol.: 0 #: 0
TYPE : TOUR
DIMENSION : 124
TOUR_SECTION
34
65
91
7
12
81
2
56
57
58
100
35
62
45
55
121
80
48
1
17
96
59
105
31
89
18
21
70
71
15
6
90
61
19
50
24
26
119
22
69
23
77
43
74
117
103
115
13
37
123
28
75
101
107
86
44
72
78
92
60
66
20
64
8
93
49
120
116
27
104
106
82
102
68
5
51
95
4
97
118
76
113
42
88
73
83
25
16
87
111
9
63
3
33
14
32
10
79
110
36
109
53
29
40
41
112
122
52
11
85
114
46
84
47
30
67
98
124
38
108
54
99
94
39
-1
EOF
